p tw 28 194
0 1
0 2
0 15
0 18
0 20
0 5
0 23
0 24
0 11
0 27
0 9
0 14
0 8
0 19
0 21
0 17
0 22
0 7
0 13
1 2
1 6
1 7
1 15
1 19
1 17
1 8
1 10
1 14
1 20
2 8
2 10
2 14
2 15
2 11
2 12
2 22
2 18
2 6
2 23
3 4
3 5
3 8
3 9
3 13
3 14
3 6
3 21
3 10
3 15
3 25
3 7
3 12
3 19
3 16
3 27
3 17
3 23
4 5
4 19
4 20
4 11
4 22
4 6
4 7
4 17
4 25
4 13
4 15
5 16
5 20
5 8
5 9
5 7
5 19
5 17
5 21
5 25
5 24
6 7
6 12
6 18
6 19
6 21
6 10
6 16
6 9
6 25
6 23
6 8
6 24
6 17
6 22
7 23
7 25
7 19
7 17
7 22
7 13
7 14
8 9
8 10
8 21
8 16
8 12
8 20
8 17
8 18
8 19
8 13
8 27
9 21
9 25
9 12
9 26
9 13
9 14
9 20
9 23
9 16
10 11
10 12
10 16
10 15
10 22
10 14
10 20
10 26
10 24
11 12
11 16
11 17
11 22
11 27
11 18
11 15
11 24
11 19
11 20
11 14
12 18
12 26
12 20
12 17
12 25
13 14
13 15
13 16
13 25
13 22
13 24
13 17
14 15
14 23
14 26
14 21
14 27
14 24
15 17
15 16
15 23
15 24
16 17
16 18
16 20
16 19
16 21
17 18
17 19
17 22
17 23
17 25
17 27
17 21
17 24
18 20
18 21
18 26
18 23
19 20
19 22
19 21
19 24
19 25
19 27
20 23
20 25
21 26
21 23
22 24
23 24
23 25
23 26
24 26
25 27
